Maximize
  38 x0 - 16 x1 + 8 x2 + 38 x3 + 11 x4 - 25 x5 + 3 x6 - 24 x7 - 11 x8
   - 35 x9 - 6 x10 + 37 x11 - 5 x12 + 12 x13 - 19 x14 - 32 x15 + 50 x16
   + 39 x17 + 39 x18 + 27 x19 - 17 x20 + 13 x21 - 23 x22 - 20 x23 - 3 x24
   + 32 x25 + 35 x26 - 32 x27 + 0 x28 - 16 x29 + 32 x30 + 44 x31 + 8 x32
   + 29 x33 - 4 x34 - 42 x35 - 5 x36 + 26 x37 - 5 x38 + 17 x39 + 41 x40
   - 26 x41 + 39 x42 - 49 x43 - 27 x44 + 28 x45 - 22 x46 - 33 x47 + 10 x48
   + 36 x49 - 19 x50 - 10 x51 - 25 x52 - 5 x53 - 37 x54 - 44 x55 - 40 x56
   + 40 x57 - 47 x58 + 42 x59 + 43 x60 + 30 x61 + 42 x62 + x63 - 13 x64
   + 37 x65 + 25 x66 - 31 x67 + 14 x68 + 37 x69 - 46 x70 + 11 x71 - 8 x72
   + 31 x73 + 39 x74 - 25 x75 + 33 x76 + 2 x77 + 6 x78 + 35 x79 + 8 x80
   - 13 x81 - 32 x82 - 41 x83 + 0 x84 + 6 x85 + 43 x86 - 49 x87 + 25 x88
   + 45 x89 + 3 x90 - 21 x91 - 22 x92 + 22 x93 + 35 x94 - x95 - 38 x96
   - 47 x97 + 30 x98 - 11 x99 + 24 x100 + 21 x101 + 17 x102 - 33 x103
   - 14 x104 + 27 x105 + 9 x106 - 30 x107 - 21 x108 + 18 x109 - 38 x110
   + 26 x111 - 25 x112 - 2 x113 - 11 x114 - 25 x115 - 36 x116 + 42 x117
   - 23 x118 + 25 x119 + 39 x120 - 47 x121 + 13 x122 - 48 x123 + 43 x124
   + [ - 60 x0 * x3 - 90 x0 * x17 - 74 x0 * x22 + 6 x0 * x28 + 4 x0 * x34
   - 34 x0 * x47 - 46 x0 * x57 - 56 x0 * x58 - 86 x0 * x62 - 26 x0 * x64
   - 24 x0 * x65 + 78 x0 * x68 + 82 x0 * x69 - 80 x0 * x70 + 54 x0 * x78
   - 74 x0 * x82 + 20 x0 * x88 + 92 x0 * x95 - 10 x0 * x100 - 4 x0 * x103
   - 78 x0 * x104 + 50 x0 * x107 - 36 x0 * x108 - 74 x0 * x111
   + 4 x0 * x115 + 96 x0 * x116 + 2 x0 * x123 - 4 x0 * x124 - 12 x1 * x3
   - 22 x1 * x6 + 30 x1 * x7 - 52 x1 * x10 + 92 x1 * x11 - 90 x1 * x14
   - 58 x1 * x16 - 46 x1 * x18 - 58 x1 * x22 + 42 x1 * x35 - 64 x1 * x38
   + 30 x1 * x39 + 96 x1 * x48 + 98 x1 * x51 + 16 x1 * x58 - 90 x1 * x62
   + 76 x1 * x67 + 36 x1 * x70 + 38 x1 * x72 + 36 x1 * x73 - 44 x1 * x74
   - 98 x1 * x75 + 10 x1 * x80 + 52 x1 * x81 - 50 x1 * x83 + 82 x1 * x87
   + 20 x1 * x88 - 60 x1 * x100 + 86 x1 * x102 - 68 x1 * x104
   + 76 x1 * x105 - 42 x1 * x108 - 66 x1 * x109 - 58 x1 * x114
   - 10 x1 * x116 + 8 x1 * x121 - 58 x1 * x123 - 8 x2 * x3 + 92 x2 * x14
   - 38 x2 * x15 + 40 x2 * x19 + 4 x2 * x22 + 10 x2 * x23 - 18 x2 * x32
   - 92 x2 * x33 - 60 x2 * x41 + 100 x2 * x44 - 24 x2 * x52 - 92 x2 * x65
   + 78 x2 * x66 - 64 x2 * x68 + 14 x2 * x73 - 74 x2 * x80 + 100 x2 * x83
   - 72 x2 * x92 - 72 x2 * x93 - 80 x2 * x100 - 74 x2 * x101 - 96 x2 * x103
   - 40 x2 * x110 - 28 x2 * x112 - 4 x2 * x115 + 78 x2 * x121
   - 42 x2 * x124 + 12 x3 * x4 + 38 x3 * x10 - 66 x3 * x13 - 56 x3 * x18
   + 2 x3 * x20 - 48 x3 * x30 - 36 x3 * x31 + 80 x3 * x41 + 88 x3 * x49
   - 58 x3 * x51 - 28 x3 * x55 + 86 x3 * x61 + 72 x3 * x62 + 90 x3 * x63
   - 96 x3 * x67 + 54 x3 * x68 - 50 x3 * x70 + 10 x3 * x76 - 44 x3 * x77
   + 90 x3 * x85 + 4 x3 * x86 - 18 x3 * x93 + 26 x3 * x101 - 44 x3 * x103
   + 84 x3 * x106 - 94 x3 * x109 + 66 x3 * x112 - 44 x3 * x115
   - 38 x3 * x117 + 58 x3 * x119 + 10 x4 * x5 - 18 x4 * x7 + 80 x4 * x13
   + 96 x4 * x17 - 4 x4 * x18 + 52 x4 * x21 + 30 x4 * x30 - 34 x4 * x35
   + 18 x4 * x43 + 4 x4 * x48 + 86 x4 * x50 - 12 x4 * x53 + 34 x4 * x55
   + 46 x4 * x58 - 86 x4 * x60 - 96 x4 * x63 - 18 x4 * x64 - 94 x4 * x67
   + 30 x4 * x74 + 30 x4 * x75 + 96 x4 * x82 - 64 x4 * x83 - 68 x4 * x84
   + 38 x4 * x87 + 30 x4 * x91 + 58 x4 * x102 - 74 x4 * x109 + 12 x4 * x122
   - 74 x4 * x124 - 62 x5 * x12 - 48 x5 * x14 + 76 x5 * x15 - 94 x5 * x18
   - 16 x5 * x19 + 6 x5 * x21 + 70 x5 * x27 - 64 x5 * x30 + 30 x5 * x32
   - 98 x5 * x35 - 56 x5 * x37 + 32 x5 * x41 - 72 x5 * x42 + 98 x5 * x45
   + 66 x5 * x54 + 88 x5 * x57 - 92 x5 * x58 - 54 x5 * x59 + 96 x5 * x61
   - 26 x5 * x62 - 82 x5 * x66 + 30 x5 * x68 + 48 x5 * x73 + 8 x5 * x75
   - 46 x5 * x81 - 28 x5 * x83 + 60 x5 * x84 - 68 x5 * x85 - 50 x5 * x90
   - 100 x5 * x91 - 44 x5 * x95 + 72 x5 * x96 - 88 x5 * x102 - 40 x5 * x110
   + 30 x5 * x121 + 38 x5 * x122 - 60 x6 * x8 - 18 x6 * x13 - 52 x6 * x19
   - 50 x6 * x20 - 86 x6 * x21 - 92 x6 * x23 + 82 x6 * x24 - 18 x6 * x30
   + 66 x6 * x33 + 44 x6 * x36 + 90 x6 * x38 - 50 x6 * x40 - 58 x6 * x42
   - 66 x6 * x49 + 20 x6 * x51 + 2 x6 * x53 + 48 x6 * x54 - 10 x6 * x57
   - 8 x6 * x59 + 74 x6 * x65 + 72 x6 * x70 - 30 x6 * x73 + 86 x6 * x76
   + 12 x6 * x78 + 100 x6 * x79 + 98 x6 * x82 + 78 x6 * x89 + 44 x6 * x90
   + 40 x6 * x91 + 58 x6 * x92 - 66 x6 * x100 + 46 x6 * x114 - 64 x6 * x115
   + 80 x6 * x119 - 58 x7 * x13 - 4 x7 * x17 + 36 x7 * x18 - 62 x7 * x23
   + 78 x7 * x24 + 76 x7 * x28 + 28 x7 * x32 - 66 x7 * x33 - 64 x7 * x37
   + 80 x7 * x39 - 34 x7 * x40 + 92 x7 * x43 + 26 x7 * x45 + 98 x7 * x46
   - 72 x7 * x47 + 78 x7 * x48 + 20 x7 * x50 - 86 x7 * x51 - 72 x7 * x58
   - 52 x7 * x63 + 62 x7 * x64 - 74 x7 * x72 - 42 x7 * x77 - 2 x7 * x85
   + 10 x7 * x97 - 18 x7 * x98 + 52 x7 * x101 - 14 x7 * x103 + 12 x7 * x104
   - 36 x7 * x107 - 12 x7 * x114 - 96 x7 * x115 + 22 x7 * x121
   - 82 x7 * x123 - 2 x8 ^2 - 86 x8 * x10 + 68 x8 * x16 + 78 x8 * x17
   - 42 x8 * x19 + 40 x8 * x26 + 36 x8 * x28 + 2 x8 * x33 + 30 x8 * x40
   - 94 x8 * x43 - 50 x8 * x44 + 70 x8 * x48 - 98 x8 * x59 - 58 x8 * x68
   - 98 x8 * x89 - 50 x8 * x94 - 34 x8 * x96 - 64 x8 * x105 - 52 x8 * x106
   + 70 x8 * x112 + 90 x8 * x114 - 70 x9 * x10 + 74 x9 * x14 - 52 x9 * x15
   + 44 x9 * x20 + 92 x9 * x29 + 36 x9 * x31 + 24 x9 * x39 - 42 x9 * x44
   - 96 x9 * x50 + 58 x9 * x53 + 72 x9 * x60 - 56 x9 * x62 - 18 x9 * x63
   + 66 x9 * x65 + 26 x9 * x68 + 86 x9 * x72 - 16 x9 * x76 + 70 x9 * x80
   - 2 x9 * x83 - 62 x9 * x85 - 28 x9 * x86 - 24 x9 * x101 + 14 x9 * x111
   - 54 x9 * x116 - 90 x9 * x118 + 70 x9 * x122 - 37 x10 ^2 - 86 x10 * x17
   + 6 x10 * x28 + 96 x10 * x29 - 32 x10 * x30 + 60 x10 * x32
   + 42 x10 * x34 - 36 x10 * x43 + 44 x10 * x46 + 88 x10 * x47
   + 72 x10 * x51 - 72 x10 * x53 + 40 x10 * x60 - 38 x10 * x65
   + 86 x10 * x78 - 30 x10 * x82 - 12 x10 * x88 - 6 x10 * x89
   + 42 x10 * x90 - 90 x10 * x93 + 26 x10 * x102 - 82 x10 * x104
   - 40 x10 * x108 - 84 x10 * x109 + 48 x10 * x111 - 28 x10 * x118
   - 82 x10 * x121 - 2 x11 * x12 + 94 x11 * x16 + 2 x11 * x27
   + 98 x11 * x29 + 48 x11 * x30 + 32 x11 * x38 + 84 x11 * x39
   + 52 x11 * x42 - 70 x11 * x45 - 44 x11 * x53 - 98 x11 * x56
   + 24 x11 * x68 + 62 x11 * x70 - 98 x11 * x74 - 80 x11 * x79
   + 8 x11 * x81 + 92 x11 * x82 + 68 x11 * x83 - 90 x11 * x85
   + 80 x11 * x86 + 98 x11 * x87 + 56 x11 * x89 + 84 x11 * x92
   + 68 x11 * x99 + 36 x11 * x110 + 12 x11 * x114 + 90 x11 * x115
   + 74 x11 * x117 - 82 x11 * x118 + 40 x11 * x120 + 40 x12 * x14
   - 64 x12 * x17 - 12 x12 * x18 + 26 x12 * x21 - 22 x12 * x23
   + 62 x12 * x26 - 52 x12 * x28 + 24 x12 * x30 - 72 x12 * x31
   - 12 x12 * x37 + 10 x12 * x45 - 66 x12 * x46 + 26 x12 * x52
   - 58 x12 * x53 + 28 x12 * x55 + 76 x12 * x57 + 16 x12 * x58
   - 98 x12 * x59 - 38 x12 * x60 - 58 x12 * x61 + 12 x12 * x66
   + 94 x12 * x77 + 28 x12 * x80 + 72 x12 * x90 - 84 x12 * x102
   + 98 x12 * x103 - 2 x12 * x107 - 72 x12 * x111 + 2 x12 * x112
   + 70 x12 * x113 + 56 x12 * x115 - 48 x12 * x118 - 22 x12 * x119
   - 8 x12 * x121 - 58 x12 * x123 - 68 x13 * x28 + 48 x13 * x34
   + 82 x13 * x46 - 44 x13 * x49 - 56 x13 * x52 + 40 x13 * x53
   - 20 x13 * x54 - 44 x13 * x62 + 10 x13 * x63 - 20 x13 * x73
   - 72 x13 * x79 + 20 x13 * x80 + 48 x13 * x84 - 94 x13 * x87
   + 30 x13 * x88 - 8 x13 * x90 - 28 x13 * x98 + 62 x13 * x103
   - 100 x13 * x106 - 92 x13 * x107 - 38 x13 * x110 - 78 x13 * x117
   - 82 x13 * x119 + 72 x13 * x121 + 8 x14 * x22 - 42 x14 * x28
   - 12 x14 * x29 + 50 x14 * x32 + 94 x14 * x35 - 54 x14 * x41
   - 50 x14 * x47 - 52 x14 * x58 - 30 x14 * x59 - 28 x14 * x68
   - 40 x14 * x77 + 48 x14 * x84 - 80 x14 * x87 - 28 x14 * x88
   + 8 x14 * x94 + 68 x14 * x97 + 94 x14 * x101 + 84 x14 * x102
   - 62 x14 * x105 + 92 x14 * x109 + 28 x14 * x117 - 42 x14 * x120
   + 34 x14 * x122 + 8 x14 * x123 - 30 x14 * x124 - 56 x15 * x18
   - 42 x15 * x25 + 40 x15 * x29 - 50 x15 * x30 + 56 x15 * x31
   + 58 x15 * x35 + 82 x15 * x39 + 98 x15 * x43 + 42 x15 * x48
   + 76 x15 * x49 + 30 x15 * x50 - 8 x15 * x61 - 8 x15 * x76 + 14 x15 * x84
   + 16 x15 * x93 - 26 x15 * x103 + 86 x15 * x106 + 24 x15 * x111
   - 52 x15 * x117 - 30 x15 * x122 + 66 x16 * x19 - 40 x16 * x22
   + 84 x16 * x23 + 34 x16 * x25 - 54 x16 * x27 - 46 x16 * x30
   + 86 x16 * x34 + 58 x16 * x45 - 4 x16 * x49 - 40 x16 * x51
   - 54 x16 * x53 - 64 x16 * x58 + 40 x16 * x59 - 94 x16 * x65
   + 36 x16 * x66 + 24 x16 * x68 + 58 x16 * x69 + 42 x16 * x72
   - 62 x16 * x79 + 56 x16 * x81 - 50 x16 * x83 - 20 x16 * x86
   + 92 x16 * x90 + 36 x16 * x91 - 34 x16 * x93 - 80 x16 * x98
   + 64 x16 * x99 - 32 x16 * x102 + 32 x16 * x103 + 72 x16 * x106
   + 86 x16 * x107 - 78 x16 * x110 + 36 x16 * x112 - 92 x16 * x114
   + 72 x16 * x116 + 20 x16 * x117 + 74 x17 * x19 - 28 x17 * x24
   - 98 x17 * x27 - 28 x17 * x33 + 70 x17 * x51 + 76 x17 * x52
   + 98 x17 * x53 + 46 x17 * x58 - 92 x17 * x68 - 96 x17 * x70
   - 66 x17 * x78 + 76 x17 * x79 + 100 x17 * x80 - 84 x17 * x83
   + 78 x17 * x94 + 56 x17 * x95 - 64 x17 * x101 - 62 x17 * x104
   + 84 x17 * x106 + 98 x17 * x110 - 18 x17 * x120 - 14 x17 * x121
   - 68 x17 * x122 + 50 x18 * x22 - 96 x18 * x25 + 58 x18 * x26
   - 80 x18 * x36 - 68 x18 * x38 + 74 x18 * x43 + 80 x18 * x48
   + 10 x18 * x59 - 64 x18 * x60 + 14 x18 * x68 - 24 x18 * x75
   - 78 x18 * x82 - 14 x18 * x88 - 12 x18 * x90 - 14 x18 * x95
   - 90 x18 * x97 - 46 x18 * x102 - 20 x18 * x104 + 88 x18 * x107
   + 76 x18 * x112 + 34 x18 * x118 + 6 x18 * x123 - 98 x18 * x124
   - 34 x19 * x23 - 80 x19 * x31 + 84 x19 * x32 + 6 x19 * x41
   - 66 x19 * x47 - 94 x19 * x50 + 82 x19 * x51 - 28 x19 * x52
   + 14 x19 * x53 - 62 x19 * x59 - 84 x19 * x62 - 92 x19 * x63
   - 80 x19 * x67 - 2 x19 * x70 - 76 x19 * x73 + 50 x19 * x74
   - 18 x19 * x75 - 62 x19 * x85 - 26 x19 * x86 + 36 x19 * x88
   - 28 x19 * x90 - 72 x19 * x92 - 74 x19 * x97 + 34 x19 * x98
   - 38 x19 * x100 - 38 x19 * x109 + 12 x19 * x110 - 64 x19 * x113
   - 28 x19 * x114 + 28 x19 * x119 + 66 x20 * x26 + 10 x20 * x28
   + 12 x20 * x29 - 86 x20 * x33 + 56 x20 * x37 - 48 x20 * x39
   - 72 x20 * x46 + 74 x20 * x48 - 14 x20 * x50 - 92 x20 * x51
   - 52 x20 * x58 + 10 x20 * x59 + 34 x20 * x62 - 60 x20 * x67
   + 84 x20 * x68 - 38 x20 * x72 - 72 x20 * x76 + 72 x20 * x78
   + 52 x20 * x81 - 6 x20 * x82 + 42 x20 * x94 + 92 x20 * x96
   + 70 x20 * x98 + 92 x20 * x106 + 84 x20 * x107 - 88 x20 * x108
   + 16 x20 * x112 - 96 x20 * x114 - 46 x20 * x118 - 46 x20 * x119
   - 62 x20 * x123 + 6 x20 * x124 - 7 x21 ^2 - 2 x21 * x24 - 2 x21 * x28
   - 16 x21 * x31 + 12 x21 * x34 - 24 x21 * x35 + 32 x21 * x38
   + 88 x21 * x44 - 22 x21 * x48 - 28 x21 * x50 - 84 x21 * x52
   - 14 x21 * x59 - 26 x21 * x62 - 80 x21 * x67 - 42 x21 * x68
   - 56 x21 * x69 - 54 x21 * x70 + 36 x21 * x71 - 44 x21 * x78
   + 62 x21 * x82 - 50 x21 * x85 - 86 x21 * x94 + 36 x21 * x97
   + 46 x21 * x104 + 32 x21 * x107 - 72 x21 * x118 - 66 x21 * x121
   + 32 x22 * x23 - 66 x22 * x25 - 66 x22 * x26 + 44 x22 * x32
   - 20 x22 * x45 + 48 x22 * x47 + 44 x22 * x55 - 38 x22 * x56
   + 12 x22 * x57 - 32 x22 * x58 - 60 x22 * x64 + 20 x22 * x70
   + 90 x22 * x87 - 100 x22 * x92 + 60 x22 * x93 - 48 x22 * x98
   - 48 x22 * x104 - 20 x22 * x108 - 56 x22 * x117 + 18 x22 * x122
   + 10 x22 * x123 + 10 x23 ^2 + 94 x23 * x35 + 62 x23 * x36 + 86 x23 * x37
   - 72 x23 * x47 - 58 x23 * x56 - 34 x23 * x57 - 40 x23 * x60
   + 16 x23 * x66 - 46 x23 * x69 + 18 x23 * x78 - 14 x23 * x80
   + 80 x23 * x81 - 50 x23 * x85 - 40 x23 * x87 - 8 x23 * x90
   - 62 x23 * x91 + 2 x23 * x98 + 86 x23 * x105 + 2 x23 * x112
   - 34 x23 * x119 + 58 x24 * x26 + 58 x24 * x33 + 2 x24 * x34
   - 38 x24 * x40 - 54 x24 * x48 - 64 x24 * x65 + 2 x24 * x66
   + 66 x24 * x74 - 48 x24 * x87 - 92 x24 * x91 + 36 x24 * x92
   + 58 x24 * x93 + 96 x24 * x94 + 76 x24 * x95 - 42 x24 * x102
   + 100 x24 * x105 + 100 x24 * x108 + 66 x24 * x110 - 2 x24 * x111
   - 86 x24 * x112 - 98 x24 * x113 - 56 x24 * x117 + 100 x24 * x124
   + 70 x25 * x29 + 46 x25 * x30 - 88 x25 * x45 - 4 x25 * x52
   - 88 x25 * x55 - 70 x25 * x58 + 94 x25 * x64 + 90 x25 * x65
   - 94 x25 * x73 + 18 x25 * x76 - 84 x25 * x78 - 26 x25 * x79
   - 38 x25 * x86 + 64 x25 * x96 + 48 x25 * x98 - 40 x25 * x108
   + 10 x25 * x120 + 92 x25 * x122 - 7 x26 ^2 + 28 x26 * x31 - 68 x26 * x33
   - 18 x26 * x43 + 70 x26 * x44 - 94 x26 * x45 - 22 x26 * x46
   - 22 x26 * x47 + 80 x26 * x48 - 38 x26 * x50 - 8 x26 * x53
   + 86 x26 * x61 + 96 x26 * x64 - 80 x26 * x67 + 66 x26 * x68
   - 30 x26 * x78 + 2 x26 * x84 - 94 x26 * x86 - 10 x26 * x89
   - 44 x26 * x91 - 68 x26 * x92 + 86 x26 * x93 - 20 x26 * x97
   - 34 x26 * x100 - 60 x26 * x102 + 8 x26 * x112 + 100 x26 * x116
   + 34 x27 ^2 + 66 x27 * x29 + 94 x27 * x36 - 76 x27 * x39 + 6 x27 * x42
   - 76 x27 * x47 + 12 x27 * x58 + 98 x27 * x61 + 60 x27 * x62
   - 10 x27 * x63 + 20 x27 * x64 + 72 x27 * x68 - 46 x27 * x73
   - 8 x27 * x80 - 32 x27 * x82 - 68 x27 * x83 + 8 x27 * x85 - 86 x27 * x93
   + 92 x27 * x95 - 78 x27 * x98 - 50 x27 * x99 - 98 x27 * x101
   - 64 x27 * x102 + 36 x27 * x103 - 92 x27 * x105 - 78 x27 * x106
   + 2 x27 * x111 - 96 x27 * x113 + 54 x27 * x114 - 92 x27 * x122
   + 60 x28 * x29 + 16 x28 * x37 + 16 x28 * x39 - 80 x28 * x41
   - 12 x28 * x44 + 52 x28 * x46 - 64 x28 * x48 + 78 x28 * x51
   + 70 x28 * x53 + 78 x28 * x54 + 84 x28 * x59 - 86 x28 * x66
   + 22 x28 * x68 + 50 x28 * x69 - 60 x28 * x72 - 18 x28 * x74
   - 40 x28 * x79 - 48 x28 * x80 + 12 x28 * x107 - 46 x28 * x109
   + 4 x28 * x110 + 38 x28 * x114 - 62 x28 * x120 - 90 x29 * x36
   + 56 x29 * x44 + 50 x29 * x47 + 84 x29 * x48 - 28 x29 * x51
   + 84 x29 * x59 + 8 x29 * x62 - 32 x29 * x63 - 20 x29 * x64
   + 64 x29 * x66 + 50 x29 * x67 - 28 x29 * x69 + 18 x29 * x76
   - 64 x29 * x78 - 22 x29 * x87 - 78 x29 * x91 - 26 x29 * x93
   - 68 x29 * x99 - 60 x29 * x104 - 70 x29 * x105 - 62 x29 * x113
   - 68 x29 * x115 + 48 x29 * x117 - 2 x29 * x120 - 76 x30 * x39
   + 24 x30 * x42 - 4 x30 * x43 + 84 x30 * x49 + 56 x30 * x53
   + 46 x30 * x56 + 92 x30 * x57 - 40 x30 * x62 + 72 x30 * x64
   + 98 x30 * x68 + 42 x30 * x73 + 68 x30 * x74 - 82 x30 * x76
   - 34 x30 * x82 + 14 x30 * x85 + 4 x30 * x86 - 100 x30 * x93
   - 40 x30 * x95 - 40 x30 * x98 - 62 x30 * x102 + 4 x30 * x103
   - 58 x30 * x104 - 42 x30 * x114 + 16 x30 * x117 + 78 x30 * x122
   - 60 x30 * x123 + 72 x31 * x34 + 82 x31 * x44 + 76 x31 * x47
   + 62 x31 * x49 + 36 x31 * x52 - 26 x31 * x59 + 6 x31 * x66
   - 82 x31 * x67 + 60 x31 * x71 + 88 x31 * x75 - 32 x31 * x77
   - 26 x31 * x90 - 40 x31 * x98 - 24 x31 * x108 - 88 x31 * x113
   - 30 x31 * x114 - 50 x31 * x118 + 88 x31 * x119 + 19 x32 ^2
   + 28 x32 * x33 + 40 x32 * x41 + 40 x32 * x42 - 30 x32 * x54
   - 82 x32 * x58 - 4 x32 * x84 + 58 x32 * x90 + 36 x32 * x94
   - 40 x32 * x102 + 26 x32 * x105 - 100 x32 * x107 + 16 x32 * x110
   - 38 x32 * x111 - 20 x32 * x114 + 80 x32 * x115 - 90 x32 * x117
   + 100 x32 * x120 + 46 x32 * x121 - 2 x32 * x123 + 64 x33 * x34
   + 98 x33 * x40 + 24 x33 * x43 + 54 x33 * x45 - 62 x33 * x46
   - 24 x33 * x47 + 24 x33 * x48 + 32 x33 * x51 - 90 x33 * x54
   + 8 x33 * x65 - 78 x33 * x67 + 54 x33 * x68 + 58 x33 * x76
   + 78 x33 * x79 + 64 x33 * x81 - 98 x33 * x90 + 32 x33 * x93
   + 62 x33 * x99 + 34 x33 * x108 - 2 x33 * x109 - 10 x33 * x117
   + 20 x33 * x124 + 50 x34 * x38 - 28 x34 * x40 - 66 x34 * x49
   + 34 x34 * x50 - 68 x34 * x62 + 8 x34 * x65 + 84 x34 * x71
   + 12 x34 * x72 + 88 x34 * x79 - 8 x34 * x80 + 68 x34 * x82
   - 52 x34 * x83 + 70 x34 * x90 - 50 x34 * x91 + 62 x34 * x93
   + 92 x34 * x95 - 20 x34 * x97 + 40 x34 * x100 + 12 x34 * x104
   + 72 x34 * x109 - 70 x34 * x114 + 10 x34 * x116 + 80 x35 * x37
   + 32 x35 * x44 + 88 x35 * x48 - 100 x35 * x49 - 92 x35 * x53
   + 10 x35 * x59 - 100 x35 * x62 - 70 x35 * x66 + 56 x35 * x68
   + 48 x35 * x73 + 46 x35 * x74 - 26 x35 * x76 + 86 x35 * x77
   - 90 x35 * x89 + 58 x35 * x91 + 62 x35 * x92 + 18 x35 * x94
   + 2 x35 * x96 + 32 x35 * x97 + 6 x35 * x103 - 92 x35 * x105
   - 98 x35 * x107 + 30 x35 * x108 - 18 x35 * x123 + 20 x36 * x41
   + 26 x36 * x42 - 28 x36 * x43 - 4 x36 * x56 - 16 x36 * x59
   - 66 x36 * x67 - 80 x36 * x69 + 20 x36 * x71 - 58 x36 * x76
   - 100 x36 * x81 + 44 x36 * x83 + 56 x36 * x84 - 50 x36 * x85
   + 14 x36 * x86 - 80 x36 * x92 - 64 x36 * x95 + 66 x36 * x97
   + 42 x36 * x98 - 52 x36 * x99 - 22 x36 * x101 + 18 x36 * x113
   - 16 x36 * x118 + 56 x36 * x121 - 48 x37 * x38 - 30 x37 * x41
   - 40 x37 * x44 + 28 x37 * x46 - 44 x37 * x49 + 78 x37 * x50
   - 18 x37 * x56 + 34 x37 * x58 + 24 x37 * x61 - 20 x37 * x80
   + 30 x37 * x82 + 62 x37 * x83 - 90 x37 * x84 + 68 x37 * x86
   + 38 x37 * x89 - 6 x37 * x93 + 74 x37 * x99 - 36 x37 * x106
   - 52 x37 * x109 - 86 x37 * x115 + 68 x37 * x117 - 88 x37 * x119
   - 82 x37 * x122 + 66 x38 * x50 - 16 x38 * x52 + 74 x38 * x54
   - 52 x38 * x55 + 22 x38 * x58 + 76 x38 * x61 - 82 x38 * x62
   - 72 x38 * x67 - 88 x38 * x74 + 4 x38 * x78 - 30 x38 * x80
   + 48 x38 * x86 + 74 x38 * x91 + 46 x38 * x96 + 68 x38 * x103
   + 98 x38 * x105 - 96 x38 * x106 - 96 x38 * x109 + 68 x38 * x121
   + 50 x38 * x122 + 40 x39 * x43 + 76 x39 * x44 + 86 x39 * x48
   - 66 x39 * x57 + 42 x39 * x59 - 98 x39 * x60 - 36 x39 * x63
   + 66 x39 * x73 + 66 x39 * x76 + 52 x39 * x78 + 14 x39 * x85
   + 10 x39 * x88 - 36 x39 * x92 - 24 x39 * x97 + 58 x39 * x101
   + 48 x39 * x103 + 64 x39 * x105 - 82 x39 * x109 + 22 x39 * x110
   + 80 x39 * x114 + 88 x39 * x122 - 38 x39 * x123 + 8 x40 * x46
   + 68 x40 * x51 + 68 x40 * x59 + 98 x40 * x64 - 82 x40 * x65
   - 98 x40 * x66 + 68 x40 * x73 + 90 x40 * x78 - 38 x40 * x79
   + 50 x40 * x83 + 74 x40 * x86 - 76 x40 * x87 + 44 x40 * x94
   + 8 x40 * x96 + 76 x40 * x109 + 20 x40 * x110 - 94 x40 * x115
   + 56 x40 * x118 - 8 x40 * x121 - 70 x40 * x122 - 50 x40 * x124
   + 12 x41 * x45 + 90 x41 * x46 - 92 x41 * x49 - 92 x41 * x50
   - 34 x41 * x51 + 82 x41 * x55 + 70 x41 * x60 + 100 x41 * x62
   - 16 x41 * x64 - 72 x41 * x65 + 42 x41 * x66 + 96 x41 * x70
   + 22 x41 * x71 + 34 x41 * x73 + 74 x41 * x77 - 76 x41 * x83
   - 14 x41 * x87 + 46 x41 * x92 + 68 x41 * x94 - 86 x41 * x95
   + 12 x41 * x97 - 36 x41 * x100 - 12 x41 * x101 + 28 x41 * x106
   - 42 x41 * x110 - 56 x41 * x113 + 24 x41 * x117 - 50 x41 * x119
   - 2 x42 ^2 - 28 x42 * x48 + 22 x42 * x59 - 64 x42 * x61 - 40 x42 * x66
   - 28 x42 * x75 - 40 x42 * x77 + 86 x42 * x78 - 52 x42 * x81
   + 98 x42 * x82 - 86 x42 * x83 - 90 x42 * x85 - 60 x42 * x86
   + 34 x42 * x88 + 70 x42 * x89 + 92 x42 * x97 + 98 x42 * x99
   + 70 x42 * x100 + 34 x42 * x102 - 66 x42 * x111 + 8 x42 * x114
   - 36 x42 * x116 - 11 x43 ^2 + 56 x43 * x48 - 86 x43 * x56 + 70 x43 * x59
   - 14 x43 * x63 - 34 x43 * x64 + 42 x43 * x65 - 30 x43 * x69
   + 40 x43 * x74 + 62 x43 * x76 + 18 x43 * x83 + 100 x43 * x84
   - 72 x43 * x87 + 62 x43 * x89 - 34 x43 * x97 - 10 x43 * x99
   + 42 x43 * x100 + 96 x43 * x109 - 48 x43 * x110 + 68 x43 * x111
   - 50 x43 * x112 + 48 x43 * x121 + 70 x43 * x124 + 26 x44 * x47
   + 74 x44 * x53 - 62 x44 * x54 - 62 x44 * x57 - 40 x44 * x61
   - 88 x44 * x62 - 76 x44 * x64 + 46 x44 * x67 + 66 x44 * x71
   - 26 x44 * x72 - 12 x44 * x89 + 52 x44 * x91 - 12 x44 * x96
   - 16 x44 * x101 + 2 x44 * x102 - 74 x44 * x108 - 20 x44 * x109
   + 78 x44 * x110 + 18 x44 * x114 - 86 x44 * x115 + 78 x44 * x119
   - 46 x44 * x124 - 88 x45 * x48 - 10 x45 * x55 - 74 x45 * x56
   + 8 x45 * x61 - 48 x45 * x63 - 32 x45 * x83 - 92 x45 * x90
   - 16 x45 * x91 + 64 x45 * x95 + 80 x45 * x102 + 2 x45 * x103
   - 84 x45 * x105 - 18 x45 * x118 - 26 x45 * x121 + 50 x46 * x53
   - 46 x46 * x55 + 62 x46 * x60 - 16 x46 * x62 - 80 x46 * x67
   - 34 x46 * x69 + 26 x46 * x72 - 68 x46 * x74 - 30 x46 * x76
   - 44 x46 * x80 - 48 x46 * x84 - 38 x46 * x87 - 46 x46 * x89
   - 38 x46 * x90 + 10 x46 * x92 - 10 x46 * x93 - 50 x46 * x94
   + 20 x46 * x97 - 38 x46 * x98 - 60 x46 * x100 + 94 x46 * x105
   + 32 x46 * x106 - 74 x46 * x108 - 84 x46 * x112 + 8 x46 * x113
   + 74 x46 * x114 - 86 x46 * x124 - 2 x47 * x51 - 16 x47 * x52
   + 8 x47 * x60 - 86 x47 * x61 + 86 x47 * x64 - 68 x47 * x65
   + 94 x47 * x68 + 86 x47 * x69 + 58 x47 * x71 + 98 x47 * x72
   + 52 x47 * x74 - 38 x47 * x97 - 18 x47 * x103 - 2 x47 * x107
   - 36 x47 * x108 - 78 x47 * x109 - 96 x47 * x114 + 24 x47 * x121
   - 88 x47 * x122 - 78 x47 * x124 - 76 x48 * x50 - 38 x48 * x58
   - 54 x48 * x63 + 86 x48 * x77 + 52 x48 * x83 + 86 x48 * x87
   + 98 x48 * x89 - 86 x48 * x91 - 50 x48 * x93 + 22 x48 * x94
   + 28 x48 * x95 - 12 x48 * x102 - 78 x48 * x103 - 70 x48 * x104
   + 20 x48 * x110 - 34 x48 * x112 + 64 x48 * x115 - 98 x48 * x116
   + 6 x48 * x118 + 92 x48 * x121 + 90 x48 * x122 + 80 x49 * x50
   - 70 x49 * x57 - 2 x49 * x63 + 38 x49 * x65 + 78 x49 * x67
   + 62 x49 * x75 - 8 x49 * x76 + 66 x49 * x81 + 90 x49 * x82
   + 80 x49 * x87 - 70 x49 * x95 - 10 x49 * x99 - 78 x49 * x102
   - 22 x49 * x103 + 56 x49 * x108 + 60 x49 * x118 - 44 x49 * x122
   - 100 x50 * x55 + 50 x50 * x56 - 58 x50 * x63 + 52 x50 * x72
   - 68 x50 * x78 + 80 x50 * x83 - 12 x50 * x91 + 18 x50 * x99
   + 94 x50 * x100 + 72 x50 * x104 + 66 x50 * x108 - 26 x50 * x109
   + 76 x50 * x110 - 72 x50 * x114 - 64 x51 * x52 - 80 x51 * x55
   - 36 x51 * x60 - 90 x51 * x61 + 76 x51 * x68 - 84 x51 * x71
   - 76 x51 * x73 - 96 x51 * x76 - 66 x51 * x82 + 84 x51 * x86
   - 44 x51 * x90 + 20 x51 * x102 - 18 x51 * x103 + 34 x51 * x108
   + 36 x51 * x112 - 56 x51 * x122 + 41 x52 ^2 + 14 x52 * x56
   + 48 x52 * x58 + 4 x52 * x71 - 52 x52 * x74 - 78 x52 * x78 - 4 x52 * x79
   + 62 x52 * x80 - 18 x52 * x97 + 42 x52 * x104 - 18 x52 * x114
   + 58 x53 * x57 + 4 x53 * x58 + 48 x53 * x59 - 78 x53 * x66
   + 70 x53 * x67 + 22 x53 * x70 - 50 x53 * x75 + 32 x53 * x89
   + 40 x53 * x90 + 72 x53 * x95 + 40 x53 * x98 + 16 x53 * x100
   + 58 x53 * x107 - 68 x53 * x118 + 90 x53 * x121 - 58 x54 * x56
   - 48 x54 * x57 - 78 x54 * x66 - 62 x54 * x68 + 30 x54 * x72
   + 72 x54 * x74 - 82 x54 * x75 + 30 x54 * x76 + 62 x54 * x83
   + 92 x54 * x84 - 14 x54 * x85 - 52 x54 * x87 - 10 x54 * x90
   + 100 x54 * x91 + 18 x54 * x93 + 6 x54 * x101 - 94 x54 * x102
   - 24 x54 * x103 - 28 x54 * x104 + 10 x54 * x105 + 54 x54 * x111
   - 36 x54 * x119 - 94 x55 * x57 + 30 x55 * x58 - 50 x55 * x59
   - 98 x55 * x63 + 80 x55 * x68 + 46 x55 * x75 + 54 x55 * x77
   + 72 x55 * x81 - 44 x55 * x82 - 80 x55 * x85 + 92 x55 * x86
   - 46 x55 * x91 + 98 x55 * x92 - 50 x55 * x94 - 26 x55 * x108
   - 36 x55 * x114 + 38 x55 * x119 - 98 x55 * x121 + 18 x56 * x57
   + 70 x56 * x60 - 4 x56 * x61 + 96 x56 * x62 + 24 x56 * x65
   - 86 x56 * x66 + 58 x56 * x71 + 32 x56 * x73 + 28 x56 * x78
   - 100 x56 * x81 - 90 x56 * x82 - 56 x56 * x83 - 40 x56 * x92
   - 64 x56 * x95 - 74 x56 * x96 - 44 x56 * x98 - 82 x56 * x100
   + 32 x56 * x105 - 90 x56 * x111 + 30 x56 * x112 + 18 x57 * x58
   + 42 x57 * x60 - 36 x57 * x64 - 26 x57 * x80 + 44 x57 * x81
   + 20 x57 * x82 + 14 x57 * x83 + 88 x57 * x90 - 2 x57 * x95
   - 64 x57 * x101 - 14 x57 * x105 + 8 x57 * x120 + 30 x57 * x121
   - 30 x57 * x122 - 74 x58 * x70 + 52 x58 * x71 - 38 x58 * x74
   - 70 x58 * x82 - 32 x58 * x83 - 4 x58 * x91 + 16 x58 * x93
   - 32 x58 * x98 - 60 x58 * x101 - 50 x58 * x104 + 44 x58 * x106
   - 58 x58 * x111 + 36 x58 * x112 - 32 x58 * x113 + 88 x58 * x120
   + 66 x58 * x122 + 4 x59 ^2 + 70 x59 * x63 + 76 x59 * x65 + 38 x59 * x67
   + 70 x59 * x68 + 90 x59 * x78 + 84 x59 * x81 + 42 x59 * x86
   - 38 x59 * x87 - 94 x59 * x92 + 100 x59 * x94 - 50 x59 * x95
   + 76 x59 * x97 + 92 x59 * x101 + 72 x59 * x103 + 6 x59 * x107
   - 50 x59 * x108 - 48 x59 * x114 + 38 x59 * x122 + 7 x60 ^2
   + 10 x60 * x63 + 48 x60 * x67 + 16 x60 * x70 + 32 x60 * x76
   + 14 x60 * x78 - 30 x60 * x80 - 12 x60 * x82 - 22 x60 * x86
   + 60 x60 * x88 + 54 x60 * x90 + 46 x60 * x92 - 74 x60 * x94
   + 68 x60 * x97 + 86 x60 * x103 - 34 x60 * x106 + 72 x60 * x107
   + 10 x60 * x114 + 10 x60 * x121 - 18 x61 * x72 - 46 x61 * x92
   - 100 x61 * x104 - 56 x61 * x107 + 36 x61 * x117 + 22 x61 * x119
   - 78 x61 * x120 - 28 x61 * x123 - 34 x62 * x68 + 52 x62 * x70
   + 78 x62 * x72 + 54 x62 * x74 - 14 x62 * x84 - 100 x62 * x85
   + 30 x62 * x90 - 98 x62 * x91 - 52 x62 * x93 - 30 x62 * x97
   + 80 x62 * x105 + 40 x62 * x106 + 54 x62 * x110 - 72 x62 * x111
   + 80 x62 * x112 - 86 x62 * x113 + 46 x62 * x115 - 58 x62 * x116
   - 6 x62 * x118 + 31 x63 ^2 - 100 x63 * x69 - 64 x63 * x70 + 64 x63 * x72
   - 98 x63 * x75 - 8 x63 * x78 + 76 x63 * x80 + 86 x63 * x89
   + 56 x63 * x97 + 28 x63 * x102 + 86 x63 * x104 - 48 x63 * x105
   + 76 x63 * x106 - 58 x63 * x110 + 28 x64 * x67 + 72 x64 * x75
   + 52 x64 * x77 - 46 x64 * x82 - 12 x64 * x84 - 44 x64 * x85
   + 52 x64 * x86 - 30 x64 * x87 - 82 x64 * x88 - 62 x64 * x101
   - 72 x64 * x102 - 18 x64 * x104 - 50 x64 * x105 - 52 x64 * x106
   - 100 x64 * x107 + 18 x64 * x112 - 36 x64 * x121 - 90 x64 * x123
   - 70 x65 * x66 + 48 x65 * x67 + 80 x65 * x70 + 84 x65 * x71
   - 80 x65 * x78 + 84 x65 * x79 + 24 x65 * x82 + 98 x65 * x83
   - 82 x65 * x87 + 2 x65 * x89 + 96 x65 * x96 - 70 x65 * x100
   + 82 x65 * x109 + 2 x65 * x111 + 20 x65 * x113 + 70 x65 * x119
   + 92 x65 * x124 + 70 x66 * x69 - 52 x66 * x72 + 22 x66 * x73
   + 62 x66 * x74 + 12 x66 * x85 + 46 x66 * x91 - 54 x66 * x96
   - 18 x66 * x97 + 26 x66 * x98 - 20 x66 * x99 + 16 x66 * x106
   - 78 x66 * x110 - 32 x66 * x111 - 66 x66 * x114 - 4 x66 * x118
   - 92 x66 * x120 - 82 x66 * x123 - 62 x67 * x71 - 90 x67 * x73
   - 32 x67 * x75 + 48 x67 * x77 - 72 x67 * x78 + 48 x67 * x81
   + 28 x67 * x88 + 22 x67 * x90 - 92 x67 * x91 - 62 x67 * x95
   - 40 x67 * x99 + 42 x67 * x101 + 20 x67 * x105 - 44 x67 * x108
   - 78 x67 * x120 - 60 x67 * x121 - 66 x68 * x70 - 14 x68 * x73
   - 6 x68 * x75 + 32 x68 * x78 - 80 x68 * x80 - 68 x68 * x90
   + 30 x68 * x91 + 94 x68 * x97 - 40 x68 * x99 + 80 x68 * x105
   + 4 x68 * x106 - 94 x68 * x110 - 82 x68 * x115 + 10 x68 * x116
   - 92 x68 * x117 - 30 x68 * x118 + 41 x69 ^2 + 6 x69 * x70
   + 100 x69 * x71 + 30 x69 * x73 + 42 x69 * x88 + 2 x69 * x90
   - 100 x69 * x92 + 40 x69 * x96 - 12 x69 * x98 + 26 x69 * x101
   + 70 x69 * x114 - 70 x69 * x117 + 86 x69 * x123 - 10 x69 * x124
   - 38 x70 * x74 + 22 x70 * x75 - 2 x70 * x77 - 28 x70 * x78
   + 78 x70 * x81 + 40 x70 * x83 - 60 x70 * x88 - 90 x70 * x94
   - 36 x70 * x98 + 10 x70 * x100 + 10 x70 * x109 + 74 x70 * x114
   - 94 x70 * x115 + 76 x70 * x120 + 2 x71 * x73 + 44 x71 * x74
   - 30 x71 * x80 + 62 x71 * x81 - 58 x71 * x83 + 8 x71 * x84
   - 96 x71 * x93 + 30 x71 * x95 - 4 x71 * x104 + 68 x71 * x108
   - 42 x71 * x111 + 16 x71 * x112 - 100 x71 * x113 + 58 x71 * x121
   + 94 x71 * x124 + 37 x72 ^2 + 28 x72 * x73 + 58 x72 * x76 - 36 x72 * x79
   - 94 x72 * x82 - 72 x72 * x84 + 2 x72 * x90 - 58 x72 * x95
   - 18 x72 * x99 + 78 x72 * x101 + 76 x72 * x106 + 78 x72 * x115
   - 70 x73 * x74 + 46 x73 * x75 - 88 x73 * x85 - 36 x73 * x90
   + 26 x73 * x98 - 90 x73 * x102 - 70 x73 * x104 - 14 x73 * x105
   + 16 x73 * x107 - 6 x73 * x110 - 52 x73 * x111 + 70 x73 * x117
   - 48 x73 * x122 - 6 x73 * x123 - 36 x73 * x124 + 82 x74 * x76
   + 56 x74 * x77 + 52 x74 * x91 - 80 x74 * x93 + 78 x74 * x96
   + 12 x74 * x103 - 60 x74 * x107 - 40 x74 * x111 - 18 x74 * x115
   - 72 x74 * x118 - 90 x74 * x123 - 60 x75 * x88 - 100 x75 * x91
   - 96 x75 * x92 + 46 x75 * x93 - 92 x75 * x95 - 12 x75 * x97
   - 64 x75 * x99 + 8 x75 * x102 + 32 x75 * x103 - 60 x75 * x104
   + 20 x75 * x106 + 72 x75 * x110 + 82 x75 * x116 + 76 x75 * x117
   + 14 x75 * x118 - 78 x76 * x78 + 46 x76 * x82 - 40 x76 * x87
   - 6 x76 * x92 + 18 x76 * x94 + 80 x76 * x102 - 10 x76 * x107
   + 66 x76 * x117 + 6 x76 * x118 - 98 x76 * x122 + 80 x77 * x79
   + 64 x77 * x81 - 84 x77 * x86 - 26 x77 * x91 - 36 x77 * x92
   - 72 x77 * x93 + 58 x77 * x94 + 16 x77 * x96 + 86 x77 * x97
   - 74 x77 * x99 + 16 x77 * x100 + 88 x77 * x112 + 74 x77 * x117
   - 56 x77 * x121 + 56 x78 * x79 + 92 x78 * x81 - 68 x78 * x82
   - 42 x78 * x83 + 16 x78 * x89 + 48 x78 * x92 + 46 x78 * x93
   - 12 x78 * x95 + 64 x78 * x96 + 68 x78 * x100 + 16 x78 * x105
   + 60 x78 * x106 + 10 x78 * x108 + 24 x78 * x109 - 86 x78 * x110
   - 12 x78 * x116 - 70 x78 * x123 - 24 x79 * x94 + 86 x79 * x96
   - 48 x79 * x97 - 68 x79 * x98 - 56 x79 * x100 + 20 x79 * x102
   - 52 x79 * x104 + 32 x79 * x105 + 78 x79 * x110 + 78 x79 * x111
   + 32 x79 * x114 + 10 x79 * x115 + 44 x79 * x117 + 32 x80 * x86
   - 54 x80 * x88 - 72 x80 * x93 + 42 x80 * x95 + 84 x80 * x97
   + 46 x80 * x103 - 58 x80 * x105 - 84 x80 * x117 - 46 x81 * x82
   + 68 x81 * x83 + 38 x81 * x87 + 96 x81 * x94 - 60 x81 * x100
   - 46 x81 * x101 + 60 x81 * x105 + 80 x81 * x106 + 38 x81 * x113
   + 18 x81 * x121 + 4 x82 * x86 - 24 x82 * x87 - 16 x82 * x92
   + 82 x82 * x93 - 52 x82 * x94 + 16 x82 * x106 + 60 x82 * x108
   + 46 x82 * x112 + 34 x82 * x114 + 80 x82 * x116 + 10 x82 * x122
   - 80 x82 * x123 - 34 x83 ^2 + 80 x83 * x87 - 88 x83 * x88 - 14 x83 * x97
   - 78 x83 * x104 - 28 x83 * x106 + 2 x83 * x107 - 16 x83 * x112
   + 60 x83 * x113 + 30 x83 * x122 - 70 x83 * x123 + 80 x83 * x124
   + 22 x84 * x85 - 28 x84 * x88 + 34 x84 * x93 + 30 x84 * x96
   + 92 x84 * x105 - 46 x84 * x106 - 14 x84 * x108 + 58 x84 * x109
   + 52 x84 * x113 - 4 x84 * x124 + 22 x85 ^2 + 50 x85 * x88 + 14 x85 * x89
   - 18 x85 * x92 + 82 x85 * x95 + 48 x85 * x98 - 38 x85 * x102
   - 14 x85 * x104 - 4 x85 * x108 - 24 x85 * x109 - 72 x85 * x114
   + 6 x85 * x120 - 80 x85 * x122 + 78 x85 * x123 - 18 x86 * x91
   + 68 x86 * x92 + 48 x86 * x99 - 88 x86 * x100 + 62 x86 * x105
   - 90 x86 * x107 + 70 x86 * x117 - 78 x86 * x118 - 54 x86 * x119
   + 28 x86 * x122 - 26 x87 * x95 + 62 x87 * x98 - 48 x87 * x105
   + 20 x87 * x109 - 24 x87 * x111 - 8 x87 * x118 + 14 x87 * x119
   + 76 x88 * x90 + 24 x88 * x91 - 34 x88 * x93 - 6 x88 * x94
   - 70 x88 * x95 - 34 x88 * x99 + 100 x88 * x105 + 82 x88 * x109
   - 60 x88 * x114 + 18 x88 * x115 + 36 x88 * x119 + 94 x88 * x121
   - 14 x88 * x123 - 22 x89 * x99 + 40 x89 * x100 + 84 x89 * x103
   - 100 x89 * x105 - 70 x89 * x107 + 86 x89 * x115 + 88 x89 * x116
   - 98 x89 * x118 - 38 x90 ^2 + 76 x90 * x98 - 84 x90 * x105
   - 52 x90 * x115 + 30 x90 * x117 + 16 x90 * x119 - 82 x90 * x121
   + 94 x90 * x122 - 4 x90 * x124 - 48 x91 * x99 - 24 x91 * x100
   - 82 x91 * x117 - 24 x91 * x119 + 38 x91 * x121 - 16 x92 * x95
   - 28 x92 * x98 - 62 x92 * x106 + 18 x92 * x111 - 68 x92 * x114
   - 64 x92 * x115 + 88 x92 * x117 - 62 x92 * x122 - 68 x92 * x124
   - 56 x93 * x97 - 26 x93 * x102 - 28 x93 * x104 + 16 x93 * x123
   - 6 x94 * x96 + 52 x94 * x100 + 20 x94 * x108 - 22 x94 * x113
   + 62 x94 * x115 + 86 x94 * x122 - 34 x95 * x102 - 28 x95 * x105
   + 70 x95 * x110 + 94 x95 * x112 - 18 x95 * x113 - 6 x96 * x99
   - 18 x96 * x102 - 96 x96 * x105 + 20 x96 * x106 - 30 x96 * x110
   + 50 x96 * x112 - 74 x96 * x114 + 22 x96 * x115 + 88 x96 * x117
   - 76 x96 * x118 - 78 x97 * x105 - 90 x97 * x106 - 38 x97 * x108
   + 38 x97 * x112 + 2 x97 * x113 + 14 x98 ^2 + 72 x98 * x104
   - 6 x98 * x105 + 16 x98 * x107 + 48 x98 * x111 + 56 x98 * x114
   + 94 x98 * x116 - 6 x98 * x124 + 8 x99 * x100 + 60 x99 * x102
   - 44 x99 * x103 - 72 x99 * x110 + 94 x99 * x112 + 72 x99 * x118
   + 58 x99 * x121 + 10 x99 * x122 + 38 x100 * x101 - 42 x100 * x105
   + 64 x100 * x107 - 82 x100 * x110 + 10 x100 * x113 - 92 x100 * x118
   + 100 x100 * x121 + 16 x100 * x122 + 8 x101 * x103 - 74 x101 * x104
   + 12 x101 * x106 + 90 x101 * x107 - 54 x101 * x108 - 78 x101 * x111
   - 10 x101 * x112 + 32 x101 * x115 - 22 x101 * x116 + 68 x101 * x119
   + 58 x101 * x120 + 2 x101 * x121 - 4 x101 * x124 - 56 x102 * x103
   + 60 x102 * x106 - 36 x102 * x114 + 76 x102 * x115 + 84 x102 * x117
   - 62 x102 * x118 - 38 x102 * x121 + 54 x102 * x122 - 26 x103 * x104
   + 36 x103 * x111 + 4 x103 * x112 - 66 x103 * x122 - 2 x104 ^2
   - 68 x104 * x105 - 78 x104 * x113 - 84 x104 * x118 + 18 x104 * x119
   - 96 x105 * x110 + 10 x105 * x112 - 72 x105 * x113 + 92 x105 * x115
   + 24 x105 * x117 + 26 x105 * x120 - 60 x105 * x123 - 26 x106 * x107
   - 32 x106 * x108 - 58 x106 * x118 - 32 x106 * x122 - 40 x106 * x123
   + 70 x107 * x110 + 44 x107 * x111 - 30 x107 * x112 + 74 x107 * x114
   - 36 x107 * x118 + 98 x107 * x119 - 26 x107 * x123 - 12 x108 * x110
   + 10 x108 * x113 + 22 x108 * x115 + 30 x109 * x110 + 28 x109 * x113
   - 78 x109 * x114 - 6 x109 * x118 - 22 x109 * x124 + 49 x110 ^2
   + 66 x110 * x113 - 2 x110 * x118 + 8 x110 * x124 + 76 x111 * x114
   + 18 x111 * x115 + 56 x111 * x116 + 92 x111 * x117 - 72 x112 * x118
   - 96 x112 * x120 + 46 x112 * x121 - 84 x112 * x122 + 30 x114 * x117
   - 84 x114 * x118 + 78 x114 * x123 - 45 x115 ^2 + 16 x115 * x122
   - 70 x115 * x124 - 62 x116 * x121 + 86 x116 * x123 - 74 x117 * x124
   - 22 x119 * x121 + 66 x119 * x123 - 92 x120 * x121 - 42 x121 * x124
   - x124 ^2 ] / 2 
Subject To
Bounds
 x0 <= 1
 x1 <= 1
 x2 <= 1
 x3 <= 1
 x4 <= 1
 x5 <= 1
 x6 <= 1
 x7 <= 1
 x8 <= 1
 x9 <= 1
 x10 <= 1
 x11 <= 1
 x12 <= 1
 x13 <= 1
 x14 <= 1
 x15 <= 1
 x16 <= 1
 x17 <= 1
 x18 <= 1
 x19 <= 1
 x20 <= 1
 x21 <= 1
 x22 <= 1
 x23 <= 1
 x24 <= 1
 x25 <= 1
 x26 <= 1
 x27 <= 1
 x28 <= 1
 x29 <= 1
 x30 <= 1
 x31 <= 1
 x32 <= 1
 x33 <= 1
 x34 <= 1
 x35 <= 1
 x36 <= 1
 x37 <= 1
 x38 <= 1
 x39 <= 1
 x40 <= 1
 x41 <= 1
 x42 <= 1
 x43 <= 1
 x44 <= 1
 x45 <= 1
 x46 <= 1
 x47 <= 1
 x48 <= 1
 x49 <= 1
 x50 <= 1
 x51 <= 1
 x52 <= 1
 x53 <= 1
 x54 <= 1
 x55 <= 1
 x56 <= 1
 x57 <= 1
 x58 <= 1
 x59 <= 1
 x60 <= 1
 x61 <= 1
 x62 <= 1
 x63 <= 1
 x64 <= 1
 x65 <= 1
 x66 <= 1
 x67 <= 1
 x68 <= 1
 x69 <= 1
 x70 <= 1
 x71 <= 1
 x72 <= 1
 x73 <= 1
 x74 <= 1
 x75 <= 1
 x76 <= 1
 x77 <= 1
 x78 <= 1
 x79 <= 1
 x80 <= 1
 x81 <= 1
 x82 <= 1
 x83 <= 1
 x84 <= 1
 x85 <= 1
 x86 <= 1
 x87 <= 1
 x88 <= 1
 x89 <= 1
 x90 <= 1
 x91 <= 1
 x92 <= 1
 x93 <= 1
 x94 <= 1
 x95 <= 1
 x96 <= 1
 x97 <= 1
 x98 <= 1
 x99 <= 1
 x100 <= 1
 x101 <= 1
 x102 <= 1
 x103 <= 1
 x104 <= 1
 x105 <= 1
 x106 <= 1
 x107 <= 1
 x108 <= 1
 x109 <= 1
 x110 <= 1
 x111 <= 1
 x112 <= 1
 x113 <= 1
 x114 <= 1
 x115 <= 1
 x116 <= 1
 x117 <= 1
 x118 <= 1
 x119 <= 1
 x120 <= 1
 x121 <= 1
 x122 <= 1
 x123 <= 1
 x124 <= 1
End
